c nIsolatedPIs 8
c maxPI 192
p cnf 677 1456
c gate 193 -78 -174 0
-78 -193 0
-174 -193 0
78 174 193 0
c gate 194 77 173 0
77 -194 0
173 -194 0
-77 -173 194 0
c gate 195 78 174 0
78 -195 0
174 -195 0
-78 -174 195 0
c gate 196 -193 -195 0
-193 -196 0
-195 -196 0
193 195 196 0
c gate 197 -194 196 0
-194 -197 0
196 -197 0
194 -196 197 0
c gate 198 -193 -197 0
-193 -198 0
-197 -198 0
193 197 198 0
c gate 199 -77 -173 0
-77 -199 0
-173 -199 0
77 173 199 0
c gate 200 197 -199 0
197 -200 0
-199 -200 0
-197 199 200 0
c gate 201 -76 -172 0
-76 -201 0
-172 -201 0
76 172 201 0
c gate 202 75 171 0
75 -202 0
171 -202 0
-75 -171 202 0
c gate 203 76 172 0
76 -203 0
172 -203 0
-76 -172 203 0
c gate 204 -202 -203 0
-202 -204 0
-203 -204 0
202 203 204 0
c gate 205 74 170 0
74 -205 0
170 -205 0
-74 -170 205 0
c gate 206 73 169 0
73 -206 0
169 -206 0
-73 -169 206 0
c gate 207 -205 -206 0
-205 -207 0
-206 -207 0
205 206 207 0
c gate 208 -74 -170 0
-74 -208 0
-170 -208 0
74 170 208 0
c gate 209 -207 -208 0
-207 -209 0
-208 -209 0
207 208 209 0
c gate 210 -75 -171 0
-75 -210 0
-171 -210 0
75 171 210 0
c gate 211 209 -210 0
209 -211 0
-210 -211 0
-209 210 211 0
c gate 212 204 -211 0
204 -212 0
-211 -212 0
-204 211 212 0
c gate 213 -201 -212 0
-201 -213 0
-212 -213 0
201 212 213 0
c gate 214 -73 -169 0
-73 -214 0
-169 -214 0
73 169 214 0
c gate 215 -208 -214 0
-208 -215 0
-214 -215 0
208 214 215 0
c gate 216 207 215 0
207 -216 0
215 -216 0
-207 -215 216 0
c gate 217 -201 -210 0
-201 -217 0
-210 -217 0
201 210 217 0
c gate 218 204 217 0
204 -218 0
217 -218 0
-204 -217 218 0
c gate 219 216 218 0
216 -219 0
218 -219 0
-216 -218 219 0
c gate 220 -63 -159 0
-63 -220 0
-159 -220 0
63 159 220 0
c gate 221 -62 -158 0
-62 -221 0
-158 -221 0
62 158 221 0
c gate 222 -220 -221 0
-220 -222 0
-221 -222 0
220 221 222 0
c gate 223 61 157 0
61 -223 0
157 -223 0
-61 -157 223 0
c gate 224 62 158 0
62 -224 0
158 -224 0
-62 -158 224 0
c gate 225 -223 -224 0
-223 -225 0
-224 -225 0
223 224 225 0
c gate 226 -61 -157 0
-61 -226 0
-157 -226 0
61 157 226 0
c gate 227 -60 -156 0
-60 -227 0
-156 -227 0
60 156 227 0
c gate 228 -59 -155 0
-59 -228 0
-155 -228 0
59 155 228 0
c gate 229 -58 -154 0
-58 -229 0
-154 -229 0
58 154 229 0
c gate 230 -228 -229 0
-228 -230 0
-229 -230 0
228 229 230 0
c gate 231 57 153 0
57 -231 0
153 -231 0
-57 -153 231 0
c gate 232 58 154 0
58 -232 0
154 -232 0
-58 -154 232 0
c gate 233 -231 -232 0
-231 -233 0
-232 -233 0
231 232 233 0
c gate 234 230 -233 0
230 -234 0
-233 -234 0
-230 233 234 0
c gate 235 60 156 0
60 -235 0
156 -235 0
-60 -156 235 0
c gate 236 59 155 0
59 -236 0
155 -236 0
-59 -155 236 0
c gate 237 -235 -236 0
-235 -237 0
-236 -237 0
235 236 237 0
c gate 238 -234 237 0
-234 -238 0
237 -238 0
234 -237 238 0
c gate 239 -227 -238 0
-227 -239 0
-238 -239 0
227 238 239 0
c gate 240 -57 -153 0
-57 -240 0
-153 -240 0
57 153 240 0
c gate 241 -227 -240 0
-227 -241 0
-240 -241 0
227 240 241 0
c gate 242 230 241 0
230 -242 0
241 -242 0
-230 -241 242 0
c gate 243 238 242 0
238 -243 0
242 -243 0
-238 -242 243 0
c gate 244 49 145 0
49 -244 0
145 -244 0
-49 -145 244 0
c gate 245 50 146 0
50 -245 0
146 -245 0
-50 -146 245 0
c gate 246 -244 -245 0
-244 -246 0
-245 -246 0
244 245 246 0
c gate 247 -51 -147 0
-51 -247 0
-147 -247 0
51 147 247 0
c gate 248 -50 -146 0
-50 -248 0
-146 -248 0
50 146 248 0
c gate 249 -247 -248 0
-247 -249 0
-248 -249 0
247 248 249 0
c gate 250 -246 249 0
-246 -250 0
249 -250 0
246 -249 250 0
c gate 251 52 148 0
52 -251 0
148 -251 0
-52 -148 251 0
c gate 252 51 147 0
51 -252 0
147 -252 0
-51 -147 252 0
c gate 253 -251 -252 0
-251 -253 0
-252 -253 0
251 252 253 0
c gate 254 -250 253 0
-250 -254 0
253 -254 0
250 -253 254 0
c gate 255 55 151 0
55 -255 0
151 -255 0
-55 -151 255 0
c gate 256 53 149 0
53 -256 0
149 -256 0
-53 -149 256 0
c gate 257 54 150 0
54 -257 0
150 -257 0
-54 -150 257 0
c gate 258 -256 -257 0
-256 -258 0
-257 -258 0
256 257 258 0
c gate 259 -55 -151 0
-55 -259 0
-151 -259 0
55 151 259 0
c gate 260 -54 -150 0
-54 -260 0
-150 -260 0
54 150 260 0
c gate 261 -259 -260 0
-259 -261 0
-260 -261 0
259 260 261 0
c gate 262 -258 261 0
-258 -262 0
261 -262 0
258 -261 262 0
c gate 263 -255 -262 0
-255 -263 0
-262 -263 0
255 262 263 0
c gate 264 -56 -152 0
-56 -264 0
-152 -264 0
56 152 264 0
c gate 265 56 152 0
56 -265 0
152 -265 0
-56 -152 265 0
c gate 266 -264 -265 0
-264 -266 0
-265 -266 0
264 265 266 0
c gate 267 -52 -148 0
-52 -267 0
-148 -267 0
52 148 267 0
c gate 268 -53 -149 0
-53 -268 0
-149 -268 0
53 149 268 0
c gate 269 -267 -268 0
-267 -269 0
-268 -269 0
267 268 269 0
c gate 270 266 269 0
266 -270 0
269 -270 0
-266 -269 270 0
c gate 271 261 270 0
261 -271 0
270 -271 0
-261 -270 271 0
c gate 272 263 271 0
263 -272 0
271 -272 0
-263 -271 272 0
c gate 273 -254 272 0
-254 -273 0
272 -273 0
254 -272 273 0
c gate 274 -263 -264 0
-263 -274 0
-264 -274 0
263 264 274 0
c gate 275 -265 -274 0
-265 -275 0
-274 -275 0
265 274 275 0
c gate 276 -273 275 0
-273 -276 0
275 -276 0
273 -275 276 0
c gate 277 243 -276 0
243 -277 0
-276 -277 0
-243 276 277 0
c gate 278 -239 -277 0
-239 -278 0
-277 -278 0
239 277 278 0
c gate 279 -226 -278 0
-226 -279 0
-278 -279 0
226 278 279 0
c gate 280 225 -279 0
225 -280 0
-279 -280 0
-225 279 280 0
c gate 281 222 -280 0
222 -281 0
-280 -281 0
-222 280 281 0
c gate 282 63 159 0
63 -282 0
159 -282 0
-63 -159 282 0
c gate 283 64 160 0
64 -283 0
160 -283 0
-64 -160 283 0
c gate 284 -282 -283 0
-282 -284 0
-283 -284 0
282 283 284 0
c gate 285 -281 284 0
-281 -285 0
284 -285 0
281 -284 285 0
c gate 286 -64 -160 0
-64 -286 0
-160 -286 0
64 160 286 0
c gate 287 72 168 0
72 -287 0
168 -287 0
-72 -168 287 0
c gate 288 71 167 0
71 -288 0
167 -288 0
-71 -167 288 0
c gate 289 -287 -288 0
-287 -289 0
-288 -289 0
287 288 289 0
c gate 290 -72 -168 0
-72 -290 0
-168 -290 0
72 168 290 0
c gate 291 -71 -167 0
-71 -291 0
-167 -291 0
71 167 291 0
c gate 292 -290 -291 0
-290 -292 0
-291 -292 0
290 291 292 0
c gate 293 289 292 0
289 -293 0
292 -293 0
-289 -292 293 0
c gate 294 69 165 0
69 -294 0
165 -294 0
-69 -165 294 0
c gate 295 70 166 0
70 -295 0
166 -295 0
-70 -166 295 0
c gate 296 -294 -295 0
-294 -296 0
-295 -296 0
294 295 296 0
c gate 297 -68 -164 0
-68 -297 0
-164 -297 0
68 164 297 0
c gate 298 -70 -166 0
-70 -298 0
-166 -298 0
70 166 298 0
c gate 299 -69 -165 0
-69 -299 0
-165 -299 0
69 165 299 0
c gate 300 -298 -299 0
-298 -300 0
-299 -300 0
298 299 300 0
c gate 301 -297 300 0
-297 -301 0
300 -301 0
297 -300 301 0
c gate 302 296 301 0
296 -302 0
301 -302 0
-296 -301 302 0
c gate 303 293 302 0
293 -303 0
302 -303 0
-293 -302 303 0
c gate 304 -66 -162 0
-66 -304 0
-162 -304 0
66 162 304 0
c gate 305 -67 -163 0
-67 -305 0
-163 -305 0
67 163 305 0
c gate 306 -304 -305 0
-304 -306 0
-305 -306 0
304 305 306 0
c gate 307 65 161 0
65 -307 0
161 -307 0
-65 -161 307 0
c gate 308 66 162 0
66 -308 0
162 -308 0
-66 -162 308 0
c gate 309 -307 -308 0
-307 -309 0
-308 -309 0
307 308 309 0
c gate 310 306 -309 0
306 -310 0
-309 -310 0
-306 309 310 0
c gate 311 67 163 0
67 -311 0
163 -311 0
-67 -163 311 0
c gate 312 68 164 0
68 -312 0
164 -312 0
-68 -164 312 0
c gate 313 -311 -312 0
-311 -313 0
-312 -313 0
311 312 313 0
c gate 314 -310 313 0
-310 -314 0
313 -314 0
310 -313 314 0
c gate 315 -65 -161 0
-65 -315 0
-161 -315 0
65 161 315 0
c gate 316 306 -315 0
306 -316 0
-315 -316 0
-306 315 316 0
c gate 317 314 316 0
314 -317 0
316 -317 0
-314 -316 317 0
c gate 318 303 317 0
303 -318 0
317 -318 0
-303 -317 318 0
c gate 319 -286 318 0
-286 -319 0
318 -319 0
286 -318 319 0
c gate 320 -285 319 0
-285 -320 0
319 -320 0
285 -319 320 0
c gate 321 303 -314 0
303 -321 0
-314 -321 0
-303 314 321 0
c gate 322 -289 -290 0
-289 -322 0
-290 -322 0
289 290 322 0
c gate 323 -296 -298 0
-296 -323 0
-298 -323 0
296 298 323 0
c gate 324 293 323 0
293 -324 0
323 -324 0
-293 -323 324 0
c gate 325 -322 -324 0
-322 -325 0
-324 -325 0
322 324 325 0
c gate 326 -321 325 0
-321 -326 0
325 -326 0
321 -325 326 0
c gate 327 -320 326 0
-320 -327 0
326 -327 0
320 -326 327 0
c gate 328 48 144 0
48 -328 0
144 -328 0
-48 -144 328 0
c gate 329 -47 -143 0
-47 -329 0
-143 -329 0
47 143 329 0
c gate 330 -48 -144 0
-48 -330 0
-144 -330 0
48 144 330 0
c gate 331 -329 -330 0
-329 -331 0
-330 -331 0
329 330 331 0
c gate 332 47 143 0
47 -332 0
143 -332 0
-47 -143 332 0
c gate 333 -46 -142 0
-46 -333 0
-142 -333 0
46 142 333 0
c gate 334 45 141 0
45 -334 0
141 -334 0
-45 -141 334 0
c gate 335 46 142 0
46 -335 0
142 -335 0
-46 -142 335 0
c gate 336 -334 -335 0
-334 -336 0
-335 -336 0
334 335 336 0
c gate 337 -333 -336 0
-333 -337 0
-336 -337 0
333 336 337 0
c gate 338 -332 -337 0
-332 -338 0
-337 -338 0
332 337 338 0
c gate 339 331 -338 0
331 -339 0
-338 -339 0
-331 338 339 0
c gate 340 -328 -339 0
-328 -340 0
-339 -340 0
328 339 340 0
c gate 341 -40 -136 0
-40 -341 0
-136 -341 0
40 136 341 0
c gate 342 38 134 0
38 -342 0
134 -342 0
-38 -134 342 0
c gate 343 37 133 0
37 -343 0
133 -343 0
-37 -133 343 0
c gate 344 -342 -343 0
-342 -344 0
-343 -344 0
342 343 344 0
c gate 345 -39 -135 0
-39 -345 0
-135 -345 0
39 135 345 0
c gate 346 -38 -134 0
-38 -346 0
-134 -346 0
38 134 346 0
c gate 347 -345 -346 0
-345 -347 0
-346 -347 0
345 346 347 0
c gate 348 -344 347 0
-344 -348 0
347 -348 0
344 -347 348 0
c gate 349 39 135 0
39 -349 0
135 -349 0
-39 -135 349 0
c gate 350 40 136 0
40 -350 0
136 -350 0
-40 -136 350 0
c gate 351 -349 -350 0
-349 -351 0
-350 -351 0
349 350 351 0
c gate 352 -348 351 0
-348 -352 0
351 -352 0
348 -351 352 0
c gate 353 -341 -352 0
-341 -353 0
-352 -353 0
341 352 353 0
c gate 354 36 132 0
36 -354 0
132 -354 0
-36 -132 354 0
c gate 355 -36 -132 0
-36 -355 0
-132 -355 0
36 132 355 0
c gate 356 -35 -131 0
-35 -356 0
-131 -356 0
35 131 356 0
c gate 357 -355 -356 0
-355 -357 0
-356 -357 0
355 356 357 0
c gate 358 -34 -130 0
-34 -358 0
-130 -358 0
34 130 358 0
c gate 359 33 129 0
33 -359 0
129 -359 0
-33 -129 359 0
c gate 360 -358 359 0
-358 -360 0
359 -360 0
358 -359 360 0
c gate 361 35 131 0
35 -361 0
131 -361 0
-35 -131 361 0
c gate 362 34 130 0
34 -362 0
130 -362 0
-34 -130 362 0
c gate 363 -361 -362 0
-361 -363 0
-362 -363 0
361 362 363 0
c gate 364 -360 363 0
-360 -364 0
363 -364 0
360 -363 364 0
c gate 365 357 -364 0
357 -365 0
-364 -365 0
-357 364 365 0
c gate 366 -354 -365 0
-354 -366 0
-365 -366 0
354 365 366 0
c gate 367 32 128 0
32 -367 0
128 -367 0
-32 -128 367 0
c gate 368 31 127 0
31 -368 0
127 -368 0
-31 -127 368 0
c gate 369 -367 -368 0
-367 -369 0
-368 -369 0
367 368 369 0
c gate 370 -32 -128 0
-32 -370 0
-128 -370 0
32 128 370 0
c gate 371 -369 -370 0
-369 -371 0
-370 -371 0
369 370 371 0
c gate 372 -30 -126 0
-30 -372 0
-126 -372 0
30 126 372 0
c gate 373 -31 -127 0
-31 -373 0
-127 -373 0
31 127 373 0
c gate 374 -370 -373 0
-370 -374 0
-373 -374 0
370 373 374 0
c gate 375 -372 374 0
-372 -375 0
374 -375 0
372 -374 375 0
c gate 376 369 375 0
369 -376 0
375 -376 0
-369 -375 376 0
c gate 377 24 120 0
24 -377 0
120 -377 0
-24 -120 377 0
c gate 378 23 119 0
23 -378 0
119 -378 0
-23 -119 378 0
c gate 379 -377 -378 0
-377 -379 0
-378 -379 0
377 378 379 0
c gate 380 -22 -118 0
-22 -380 0
-118 -380 0
22 118 380 0
c gate 381 -23 -119 0
-23 -381 0
-119 -381 0
23 119 381 0
c gate 382 -380 -381 0
-380 -382 0
-381 -382 0
380 381 382 0
c gate 383 22 118 0
22 -383 0
118 -383 0
-22 -118 383 0
c gate 384 21 117 0
21 -384 0
117 -384 0
-21 -117 384 0
c gate 385 -383 -384 0
-383 -385 0
-384 -385 0
383 384 385 0
c gate 386 -20 -116 0
-20 -386 0
-116 -386 0
20 116 386 0
c gate 387 -21 -117 0
-21 -387 0
-117 -387 0
21 117 387 0
c gate 388 -386 -387 0
-386 -388 0
-387 -388 0
386 387 388 0
c gate 389 18 114 0
18 -389 0
114 -389 0
-18 -114 389 0
c gate 390 17 113 0
17 -390 0
113 -390 0
-17 -113 390 0
c gate 391 -389 -390 0
-389 -391 0
-390 -391 0
389 390 391 0
c gate 392 -18 -114 0
-18 -392 0
-114 -392 0
18 114 392 0
c gate 393 -19 -115 0
-19 -393 0
-115 -393 0
19 115 393 0
c gate 394 -392 -393 0
-392 -394 0
-393 -394 0
392 393 394 0
c gate 395 -391 394 0
-391 -395 0
394 -395 0
391 -394 395 0
c gate 396 20 116 0
20 -396 0
116 -396 0
-20 -116 396 0
c gate 397 19 115 0
19 -397 0
115 -397 0
-19 -115 397 0
c gate 398 -396 -397 0
-396 -398 0
-397 -398 0
396 397 398 0
c gate 399 -395 398 0
-395 -399 0
398 -399 0
395 -398 399 0
c gate 400 388 -399 0
388 -400 0
-399 -400 0
-388 399 400 0
c gate 401 385 -400 0
385 -401 0
-400 -401 0
-385 400 401 0
c gate 402 382 -401 0
382 -402 0
-401 -402 0
-382 401 402 0
c gate 403 379 -402 0
379 -403 0
-402 -403 0
-379 402 403 0
c gate 404 28 124 0
28 -404 0
124 -404 0
-28 -124 404 0
c gate 405 -28 -124 0
-28 -405 0
-124 -405 0
28 124 405 0
c gate 406 27 123 0
27 -406 0
123 -406 0
-27 -123 406 0
c gate 407 -405 406 0
-405 -407 0
406 -407 0
405 -406 407 0
c gate 408 -404 -407 0
-404 -408 0
-407 -408 0
404 407 408 0
c gate 409 -26 -122 0
-26 -409 0
-122 -409 0
26 122 409 0
c gate 410 -27 -123 0
-27 -410 0
-123 -410 0
27 123 410 0
c gate 411 -405 -410 0
-405 -411 0
-410 -411 0
405 410 411 0
c gate 412 -409 411 0
-409 -412 0
411 -412 0
409 -411 412 0
c gate 413 408 412 0
408 -413 0
412 -413 0
-408 -412 413 0
c gate 414 -25 -121 0
-25 -414 0
-121 -414 0
25 121 414 0
c gate 415 -24 -120 0
-24 -415 0
-120 -415 0
24 120 415 0
c gate 416 -29 -125 0
-29 -416 0
-125 -416 0
29 125 416 0
c gate 417 -415 -416 0
-415 -417 0
-416 -417 0
415 416 417 0
c gate 418 -414 417 0
-414 -418 0
417 -418 0
414 -417 418 0
c gate 419 29 125 0
29 -419 0
125 -419 0
-29 -125 419 0
c gate 420 30 126 0
30 -420 0
126 -420 0
-30 -126 420 0
c gate 421 -419 -420 0
-419 -421 0
-420 -421 0
419 420 421 0
c gate 422 25 121 0
25 -422 0
121 -422 0
-25 -121 422 0
c gate 423 26 122 0
26 -423 0
122 -423 0
-26 -122 423 0
c gate 424 -422 -423 0
-422 -424 0
-423 -424 0
422 423 424 0
c gate 425 421 424 0
421 -425 0
424 -425 0
-421 -424 425 0
c gate 426 418 425 0
418 -426 0
425 -426 0
-418 -425 426 0
c gate 427 413 426 0
413 -427 0
426 -427 0
-413 -426 427 0
c gate 428 -403 427 0
-403 -428 0
427 -428 0
403 -427 428 0
c gate 429 413 -424 0
413 -429 0
-424 -429 0
-413 424 429 0
c gate 430 408 -429 0
408 -430 0
-429 -430 0
-408 429 430 0
c gate 431 -416 -430 0
-416 -431 0
-430 -431 0
416 430 431 0
c gate 432 421 -431 0
421 -432 0
-431 -432 0
-421 431 432 0
c gate 433 -428 432 0
-428 -433 0
432 -433 0
428 -432 433 0
c gate 434 376 -433 0
376 -434 0
-433 -434 0
-376 433 434 0
c gate 435 -371 -434 0
-371 -435 0
-434 -435 0
371 434 435 0
c gate 436 -33 -129 0
-33 -436 0
-129 -436 0
33 129 436 0
c gate 437 -358 -436 0
-358 -437 0
-436 -437 0
358 436 437 0
c gate 438 357 437 0
357 -438 0
437 -438 0
-357 -437 438 0
c gate 439 366 438 0
366 -439 0
438 -439 0
-366 -438 439 0
c gate 440 -435 439 0
-435 -440 0
439 -440 0
435 -439 440 0
c gate 441 366 -440 0
366 -441 0
-440 -441 0
-366 440 441 0
c gate 442 -37 -133 0
-37 -442 0
-133 -442 0
37 133 442 0
c gate 443 -341 -442 0
-341 -443 0
-442 -443 0
341 442 443 0
c gate 444 347 443 0
347 -444 0
443 -444 0
-347 -443 444 0
c gate 445 352 444 0
352 -445 0
444 -445 0
-352 -444 445 0
c gate 446 -441 445 0
-441 -446 0
445 -446 0
441 -445 446 0
c gate 447 -353 -446 0
-353 -447 0
-446 -447 0
353 446 447 0
c gate 448 2 98 0
2 -448 0
98 -448 0
-2 -98 448 0
c gate 449 1 97 0
1 -449 0
97 -449 0
-1 -97 449 0
c gate 450 -448 -449 0
-448 -450 0
-449 -450 0
448 449 450 0
c gate 451 -2 -98 0
-2 -451 0
-98 -451 0
2 98 451 0
c gate 452 -3 -99 0
-3 -452 0
-99 -452 0
3 99 452 0
c gate 453 -451 -452 0
-451 -453 0
-452 -453 0
451 452 453 0
c gate 454 -450 453 0
-450 -454 0
453 -454 0
450 -453 454 0
c gate 455 4 100 0
4 -455 0
100 -455 0
-4 -100 455 0
c gate 456 3 99 0
3 -456 0
99 -456 0
-3 -99 456 0
c gate 457 -455 -456 0
-455 -457 0
-456 -457 0
455 456 457 0
c gate 458 -454 457 0
-454 -458 0
457 -458 0
454 -457 458 0
c gate 459 -4 -100 0
-4 -459 0
-100 -459 0
4 100 459 0
c gate 460 -5 -101 0
-5 -460 0
-101 -460 0
5 101 460 0
c gate 461 -459 -460 0
-459 -461 0
-460 -461 0
459 460 461 0
c gate 462 -458 461 0
-458 -462 0
461 -462 0
458 -461 462 0
c gate 463 6 102 0
6 -463 0
102 -463 0
-6 -102 463 0
c gate 464 5 101 0
5 -464 0
101 -464 0
-5 -101 464 0
c gate 465 -463 -464 0
-463 -465 0
-464 -465 0
463 464 465 0
c gate 466 -462 465 0
-462 -466 0
465 -466 0
462 -465 466 0
c gate 467 -7 -103 0
-7 -467 0
-103 -467 0
7 103 467 0
c gate 468 -6 -102 0
-6 -468 0
-102 -468 0
6 102 468 0
c gate 469 -467 -468 0
-467 -469 0
-468 -469 0
467 468 469 0
c gate 470 -466 469 0
-466 -470 0
469 -470 0
466 -469 470 0
c gate 471 7 103 0
7 -471 0
103 -471 0
-7 -103 471 0
c gate 472 8 104 0
8 -472 0
104 -472 0
-8 -104 472 0
c gate 473 -471 -472 0
-471 -473 0
-472 -473 0
471 472 473 0
c gate 474 -470 473 0
-470 -474 0
473 -474 0
470 -473 474 0
c gate 475 11 107 0
11 -475 0
107 -475 0
-11 -107 475 0
c gate 476 12 108 0
12 -476 0
108 -476 0
-12 -108 476 0
c gate 477 -475 -476 0
-475 -477 0
-476 -477 0
475 476 477 0
c gate 478 -12 -108 0
-12 -478 0
-108 -478 0
12 108 478 0
c gate 479 -11 -107 0
-11 -479 0
-107 -479 0
11 107 479 0
c gate 480 -478 -479 0
-478 -480 0
-479 -480 0
478 479 480 0
c gate 481 477 480 0
477 -481 0
480 -481 0
-477 -480 481 0
c gate 482 9 105 0
9 -482 0
105 -482 0
-9 -105 482 0
c gate 483 10 106 0
10 -483 0
106 -483 0
-10 -106 483 0
c gate 484 -482 -483 0
-482 -484 0
-483 -484 0
482 483 484 0
c gate 485 -13 -109 0
-13 -485 0
-109 -485 0
13 109 485 0
c gate 486 -10 -106 0
-10 -486 0
-106 -486 0
10 106 486 0
c gate 487 -485 -486 0
-485 -487 0
-486 -487 0
485 486 487 0
c gate 488 -8 -104 0
-8 -488 0
-104 -488 0
8 104 488 0
c gate 489 -9 -105 0
-9 -489 0
-105 -489 0
9 105 489 0
c gate 490 -488 -489 0
-488 -490 0
-489 -490 0
488 489 490 0
c gate 491 487 490 0
487 -491 0
490 -491 0
-487 -490 491 0
c gate 492 484 491 0
484 -492 0
491 -492 0
-484 -491 492 0
c gate 493 481 492 0
481 -493 0
492 -493 0
-481 -492 493 0
c gate 494 -474 493 0
-474 -494 0
493 -494 0
474 -493 494 0
c gate 495 -477 -478 0
-477 -495 0
-478 -495 0
477 478 495 0
c gate 496 -484 -486 0
-484 -496 0
-486 -496 0
484 486 496 0
c gate 497 481 496 0
481 -497 0
496 -497 0
-481 -496 497 0
c gate 498 -495 -497 0
-495 -498 0
-497 -498 0
495 497 498 0
c gate 499 -485 -498 0
-485 -499 0
-498 -499 0
485 498 499 0
c gate 500 13 109 0
13 -500 0
109 -500 0
-13 -109 500 0
c gate 501 14 110 0
14 -501 0
110 -501 0
-14 -110 501 0
c gate 502 -500 -501 0
-500 -502 0
-501 -502 0
500 501 502 0
c gate 503 -499 502 0
-499 -503 0
502 -503 0
499 -502 503 0
c gate 504 -494 503 0
-494 -504 0
503 -504 0
494 -503 504 0
c gate 505 -14 -110 0
-14 -505 0
-110 -505 0
14 110 505 0
c gate 506 -15 -111 0
-15 -506 0
-111 -506 0
15 111 506 0
c gate 507 -505 -506 0
-505 -507 0
-506 -507 0
505 506 507 0
c gate 508 -504 507 0
-504 -508 0
507 -508 0
504 -507 508 0
c gate 509 15 111 0
15 -509 0
111 -509 0
-15 -111 509 0
c gate 510 16 112 0
16 -510 0
112 -510 0
-16 -112 510 0
c gate 511 -509 -510 0
-509 -511 0
-510 -511 0
509 510 511 0
c gate 512 -508 511 0
-508 -512 0
511 -512 0
508 -511 512 0
c gate 513 -17 -113 0
-17 -513 0
-113 -513 0
17 113 513 0
c gate 514 -16 -112 0
-16 -514 0
-112 -514 0
16 112 514 0
c gate 515 -513 -514 0
-513 -515 0
-514 -515 0
513 514 515 0
c gate 516 379 515 0
379 -516 0
515 -516 0
-379 -515 516 0
c gate 517 382 385 0
382 -517 0
385 -517 0
-382 -385 517 0
c gate 518 388 394 0
388 -518 0
394 -518 0
-388 -394 518 0
c gate 519 517 518 0
517 -519 0
518 -519 0
-517 -518 519 0
c gate 520 516 519 0
516 -520 0
519 -520 0
-516 -519 520 0
c gate 521 376 399 0
376 -521 0
399 -521 0
-376 -399 521 0
c gate 522 520 521 0
520 -522 0
521 -522 0
-520 -521 522 0
c gate 523 427 522 0
427 -523 0
522 -523 0
-427 -522 523 0
c gate 524 -512 523 0
-512 -524 0
523 -524 0
512 -523 524 0
c gate 525 435 -524 0
435 -525 0
-524 -525 0
-435 524 525 0
c gate 526 439 445 0
439 -526 0
445 -526 0
-439 -445 526 0
c gate 527 -525 526 0
-525 -527 0
526 -527 0
525 -526 527 0
c gate 528 447 -527 0
447 -528 0
-527 -528 0
-447 527 528 0
c gate 529 42 138 0
42 -529 0
138 -529 0
-42 -138 529 0
c gate 530 41 137 0
41 -530 0
137 -530 0
-41 -137 530 0
c gate 531 -529 -530 0
-529 -531 0
-530 -531 0
529 530 531 0
c gate 532 -41 -137 0
-41 -532 0
-137 -532 0
41 137 532 0
c gate 533 -44 -140 0
-44 -533 0
-140 -533 0
44 140 533 0
c gate 534 -532 -533 0
-532 -534 0
-533 -534 0
532 533 534 0
c gate 535 531 534 0
531 -535 0
534 -535 0
-531 -534 535 0
c gate 536 -42 -138 0
-42 -536 0
-138 -536 0
42 138 536 0
c gate 537 -43 -139 0
-43 -537 0
-139 -537 0
43 139 537 0
c gate 538 -536 -537 0
-536 -538 0
-537 -538 0
536 537 538 0
c gate 539 43 139 0
43 -539 0
139 -539 0
-43 -139 539 0
c gate 540 44 140 0
44 -540 0
140 -540 0
-44 -140 540 0
c gate 541 -539 -540 0
-539 -541 0
-540 -541 0
539 540 541 0
c gate 542 538 541 0
538 -542 0
541 -542 0
-538 -541 542 0
c gate 543 535 542 0
535 -543 0
542 -543 0
-535 -542 543 0
c gate 544 -528 543 0
-528 -544 0
543 -544 0
528 -543 544 0
c gate 545 -531 538 0
-531 -545 0
538 -545 0
531 -538 545 0
c gate 546 541 -545 0
541 -546 0
-545 -546 0
-541 545 546 0
c gate 547 -533 -546 0
-533 -547 0
-546 -547 0
533 546 547 0
c gate 548 -544 -547 0
-544 -548 0
-547 -548 0
544 547 548 0
c gate 549 -45 -141 0
-45 -549 0
-141 -549 0
45 141 549 0
c gate 550 -333 -549 0
-333 -550 0
-549 -550 0
333 549 550 0
c gate 551 -548 550 0
-548 -551 0
550 -551 0
548 -550 551 0
c gate 552 331 551 0
331 -552 0
551 -552 0
-331 -551 552 0
c gate 553 340 -552 0
340 -553 0
-552 -553 0
-340 552 553 0
c gate 554 -49 -145 0
-49 -554 0
-145 -554 0
49 145 554 0
c gate 555 249 -554 0
249 -555 0
-554 -555 0
-249 554 555 0
c gate 556 254 555 0
254 -556 0
555 -556 0
-254 -555 556 0
c gate 557 272 556 0
272 -557 0
556 -557 0
-272 -556 557 0
c gate 558 -553 557 0
-553 -558 0
557 -558 0
553 -557 558 0
c gate 559 276 -558 0
276 -559 0
-558 -559 0
-276 558 559 0
c gate 560 243 -559 0
243 -560 0
-559 -560 0
-243 559 560 0
c gate 561 -239 -560 0
-239 -561 0
-560 -561 0
239 560 561 0
c gate 562 -226 -561 0
-226 -562 0
-561 -562 0
226 561 562 0
c gate 563 225 -562 0
225 -563 0
-562 -563 0
-225 562 563 0
c gate 564 222 -286 0
222 -564 0
-286 -564 0
-222 286 564 0
c gate 565 285 564 0
285 -565 0
564 -565 0
-285 -564 565 0
c gate 566 -563 565 0
-563 -566 0
565 -566 0
563 -565 566 0
c gate 567 318 566 0
318 -567 0
566 -567 0
-318 -566 567 0
c gate 568 327 -567 0
327 -568 0
-567 -568 0
-327 567 568 0
c gate 569 219 -568 0
219 -569 0
-568 -569 0
-219 568 569 0
c gate 570 -213 -569 0
-213 -570 0
-569 -570 0
213 569 570 0
c gate 571 200 -570 0
200 -571 0
-570 -571 0
-200 570 571 0
c gate 572 -198 -571 0
-198 -572 0
-571 -572 0
198 571 572 0
c gate 573 80 176 0
80 -573 0
176 -573 0
-80 -176 573 0
c gate 574 79 175 0
79 -574 0
175 -574 0
-79 -175 574 0
c gate 575 -573 -574 0
-573 -575 0
-574 -575 0
573 574 575 0
c gate 576 -80 -176 0
-80 -576 0
-176 -576 0
80 176 576 0
c gate 577 -79 -175 0
-79 -577 0
-175 -577 0
79 175 577 0
c gate 578 -576 -577 0
-576 -578 0
-577 -578 0
576 577 578 0
c gate 579 575 578 0
575 -579 0
578 -579 0
-575 -578 579 0
c gate 580 -575 -576 0
-575 -580 0
-576 -580 0
575 576 580 0
c gate 581 219 -327 0
219 -581 0
-327 -581 0
-219 327 581 0
c gate 582 -213 -581 0
-213 -582 0
-581 -582 0
213 581 582 0
c gate 583 200 -582 0
200 -583 0
-582 -583 0
-200 582 583 0
c gate 584 -198 -583 0
-198 -584 0
-583 -584 0
198 583 584 0
c gate 585 579 -584 0
579 -585 0
-584 -585 0
-579 584 585 0
c gate 586 -580 -585 0
-580 -586 0
-585 -586 0
580 585 586 0
c gate 587 -81 -177 0
-81 -587 0
-177 -587 0
81 177 587 0
c gate 588 81 177 0
81 -588 0
177 -588 0
-81 -177 588 0
c gate 589 -587 -588 0
-587 -589 0
-588 -589 0
587 588 589 0
c gate 590 586 589 0
586 -590 0
589 -590 0
-586 -589 590 0
c gate 591 92 188 0
92 -591 0
188 -591 0
-92 -188 591 0
c gate 592 94 190 0
94 -592 0
190 -592 0
-94 -190 592 0
c gate 593 -591 -592 0
-591 -593 0
-592 -593 0
591 592 593 0
c gate 594 89 185 0
89 -594 0
185 -594 0
-89 -185 594 0
c gate 595 -89 -185 0
-89 -595 0
-185 -595 0
89 185 595 0
c gate 596 -594 -595 0
-594 -596 0
-595 -596 0
594 595 596 0
c gate 597 593 596 0
593 -597 0
596 -597 0
-593 -596 597 0
c gate 598 90 -186 0
90 -598 0
-186 -598 0
-90 186 598 0
c gate 599 -90 186 0
-90 -599 0
186 -599 0
90 -186 599 0
c gate 600 -598 -599 0
-598 -600 0
-599 -600 0
598 599 600 0
c gate 601 91 -187 0
91 -601 0
-187 -601 0
-91 187 601 0
c gate 602 -91 187 0
-91 -602 0
187 -602 0
91 -187 602 0
c gate 603 -601 -602 0
-601 -603 0
-602 -603 0
601 602 603 0
c gate 604 -600 -603 0
-600 -604 0
-603 -604 0
600 603 604 0
c gate 605 597 604 0
597 -605 0
604 -605 0
-597 -604 605 0
c gate 606 93 189 0
93 -606 0
189 -606 0
-93 -189 606 0
c gate 607 -92 -188 0
-92 -607 0
-188 -607 0
92 188 607 0
c gate 608 -606 -607 0
-606 -608 0
-607 -608 0
606 607 608 0
c gate 609 88 184 0
88 -609 0
184 -609 0
-88 -184 609 0
c gate 610 -93 -189 0
-93 -610 0
-189 -610 0
93 189 610 0
c gate 611 -609 -610 0
-609 -611 0
-610 -611 0
609 610 611 0
c gate 612 608 611 0
608 -612 0
611 -612 0
-608 -611 612 0
c gate 613 -95 -191 0
-95 -613 0
-191 -613 0
95 191 613 0
c gate 614 95 191 0
95 -614 0
191 -614 0
-95 -191 614 0
c gate 615 -613 -614 0
-613 -615 0
-614 -615 0
613 614 615 0
c gate 616 -87 -183 0
-87 -616 0
-183 -616 0
87 183 616 0
c gate 617 87 183 0
87 -617 0
183 -617 0
-87 -183 617 0
c gate 618 -616 -617 0
-616 -618 0
-617 -618 0
616 617 618 0
c gate 619 615 618 0
615 -619 0
618 -619 0
-615 -618 619 0
c gate 620 -88 -184 0
-88 -620 0
-184 -620 0
88 184 620 0
c gate 621 -94 -190 0
-94 -621 0
-190 -621 0
94 190 621 0
c gate 622 -620 -621 0
-620 -622 0
-621 -622 0
620 621 622 0
c gate 623 -96 -192 0
-96 -623 0
-192 -623 0
96 192 623 0
c gate 624 96 192 0
96 -624 0
192 -624 0
-96 -192 624 0
c gate 625 -623 -624 0
-623 -625 0
-624 -625 0
623 624 625 0
c gate 626 622 625 0
622 -626 0
625 -626 0
-622 -625 626 0
c gate 627 619 626 0
619 -627 0
626 -627 0
-619 -626 627 0
c gate 628 612 627 0
612 -628 0
627 -628 0
-612 -627 628 0
c gate 629 605 628 0
605 -629 0
628 -629 0
-605 -628 629 0
c gate 630 -586 -629 0
-586 -630 0
-629 -630 0
586 629 630 0
c gate 631 -86 -182 0
-86 -631 0
-182 -631 0
86 182 631 0
c gate 632 86 182 0
86 -632 0
182 -632 0
-86 -182 632 0
c gate 633 -631 -632 0
-631 -633 0
-632 -633 0
631 632 633 0
c gate 634 -84 -180 0
-84 -634 0
-180 -634 0
84 180 634 0
c gate 635 84 180 0
84 -635 0
180 -635 0
-84 -180 635 0
c gate 636 -634 -635 0
-634 -636 0
-635 -636 0
634 635 636 0
c gate 637 633 636 0
633 -637 0
636 -637 0
-633 -636 637 0
c gate 638 83 -179 0
83 -638 0
-179 -638 0
-83 179 638 0
c gate 639 -83 179 0
-83 -639 0
179 -639 0
83 -179 639 0
c gate 640 -638 -639 0
-638 -640 0
-639 -640 0
638 639 640 0
c gate 641 589 -640 0
589 -641 0
-640 -641 0
-589 640 641 0
c gate 642 85 -181 0
85 -642 0
-181 -642 0
-85 181 642 0
c gate 643 -85 181 0
-85 -643 0
181 -643 0
85 -181 643 0
c gate 644 -642 -643 0
-642 -644 0
-643 -644 0
642 643 644 0
c gate 645 82 -178 0
82 -645 0
-178 -645 0
-82 178 645 0
c gate 646 -82 178 0
-82 -646 0
178 -646 0
82 -178 646 0
c gate 647 -645 -646 0
-645 -647 0
-646 -647 0
645 646 647 0
c gate 648 -644 -647 0
-644 -648 0
-647 -648 0
644 647 648 0
c gate 649 641 648 0
641 -649 0
648 -649 0
-641 -648 649 0
c gate 650 637 649 0
637 -650 0
649 -650 0
-637 -649 650 0
c gate 651 -630 650 0
-630 -651 0
650 -651 0
630 -650 651 0
c gate 652 -590 -651 0
-590 -652 0
-651 -652 0
590 651 652 0
c gate 653 579 -652 0
579 -653 0
-652 -653 0
-579 652 653 0
c gate 654 -572 653 0
-572 -654 0
653 -654 0
572 -653 654 0
c gate 655 216 -568 0
216 -655 0
-568 -655 0
-216 568 655 0
c gate 656 -214 -327 0
-214 -656 0
-327 -656 0
214 327 656 0
c gate 657 -206 -656 0
-206 -657 0
-656 -657 0
206 656 657 0
c gate 658 655 -657 0
655 -658 0
-657 -658 0
-655 657 658 0
c gate 659 -205 -208 0
-205 -659 0
-208 -659 0
205 208 659 0
c gate 660 -657 659 0
-657 -660 0
659 -660 0
657 -659 660 0
c gate 661 -655 -660 0
-655 -661 0
-660 -661 0
655 660 661 0
c gate 662 -209 -661 0
-209 -662 0
-661 -662 0
209 661 662 0
c gate 663 -658 662 0
-658 -663 0
662 -663 0
658 -662 663 0
c gate 664 580 651 0
580 -664 0
651 -664 0
-580 -651 664 0
c gate 665 435 524 0
435 -665 0
524 -665 0
-435 -524 665 0
c gate 666 -447 543 0
-447 -666 0
543 -666 0
447 -543 666 0
c gate 667 336 -547 0
336 -667 0
-547 -667 0
-336 547 667 0
c gate 668 -666 667 0
-666 -668 0
667 -668 0
666 -667 668 0
c gate 669 331 -336 0
331 -669 0
-336 -669 0
-331 336 669 0
c gate 670 340 669 0
340 -670 0
669 -670 0
-340 -669 670 0
c gate 671 -668 -670 0
-668 -671 0
-670 -671 0
668 670 671 0
c gate 672 551 -671 0
551 -672 0
-671 -672 0
-551 671 672 0
c gate 673 -665 -672 0
-665 -673 0
-672 -673 0
665 672 673 0
c gate 674 -664 673 0
-664 -674 0
673 -674 0
664 -673 674 0
c gate 675 -566 674 0
-566 -675 0
674 -675 0
566 -674 675 0
c gate 676 -663 675 0
-663 -676 0
675 -676 0
663 -675 676 0
c gate 677 -654 676 0
-654 -677 0
676 -677 0
654 -676 677 0
c PO
-677 0
